32      2       
15      19      
0       0       0       3       2       3       4       
2       0       1       3       5       7       9       
1       0       4       3       10      17      22      
2       8       0       3       6       8       18      
6       0       2       2       16      21      
5       0       4       3       11      13      21      
10      0       9       1       29      
10      1       0       2       14      26      
3       4       0       1       15      
1       10      0       1       29      
7       7       0       2       12      16      
10      4       0       1       25      
6       10      0       1       28      
3       3       0       3       23      24      29      
5       0       8       1       31      
6       0       9       2       17      27      
2       4       0       1       19      
7       0       1       1       20      
6       9       0       1       20      
1       1       0       1       25      
9       0       8       1       22      
7       0       4       2       24      31      
6       0       10      1       30      
9       6       0       1       25      
10      0       1       1       30      
2       0       6       1       30      
10      5       0       1       28      
9       10      0       1       31      
6       1       0       1       32      
3       3       0       1       32      
9       0       3       1       32      
0       0       0       0       